PROBLEM NAME: 	tsp225-TTP
KNAPSACK DATA TYPE: uncorrelated, similar weights
DIMENSION:	225
NUMBER OF ITEMS: 	224
CAPACITY OF KNAPSACK: 	81834
MIN SPEED: 	0.1
MAX SPEED: 	1
RENTING RATIO: 	6.35
EDGE_WEIGHT_TYPE:	CEIL_2D
NODE_COORD_SECTION	(INDEX, X, Y): 
1	155.42	150.65
2	375.92	164.65
3	183.92	150.65
4	205.42	150.65
5	205.42	171.65
6	226.42	171.65
7	226.42	186.15
8	226.42	207.15
9	226.42	235.65
10	226.42	264.15
11	226.42	292.65
12	226.42	314.15
13	226.42	335.65
14	205.42	335.65
15	190.92	335.65
16	190.92	328.15
17	176.92	328.15
18	176.92	299.65
19	155.42	299.65
20	155.42	328.15
21	155.42	356.65
22	183.92	356.65
23	219.42	356.65
24	240.92	356.65
25	269.42	356.65
26	290.42	356.65
27	387.42	136.15
28	318.92	356.65
29	318.92	335.65
30	318.92	328.15
31	318.92	299.65
32	297.92	299.65
33	290.42	328.15
34	290.42	335.65
35	297.92	328.15
36	254.92	335.65
37	254.92	314.15
38	254.92	292.65
39	254.92	271.65
40	254.92	243.15
41	254.92	221.65
42	254.92	193.15
43	254.92	171.65
44	276.42	171.65
45	296.42	150.65
46	276.42	150.65
47	375.92	150.65
48	308.92	150.65
49	354.92	164.65
50	338.42	174.65
51	354.92	174.65
52	338.42	200.15
53	338.42	221.65
54	354.92	221.65
55	354.92	200.15
56	361.92	200.15
57	361.92	186.15
58	383.42	186.15
59	383.42	179.15
60	404.42	179.15
61	404.42	186.15
62	418.92	186.15
63	418.92	200.15
64	432.92	200.15
65	432.92	221.65
66	418.92	221.65
67	418.92	235.65
68	397.42	235.65
69	397.42	243.15
70	375.92	243.15
71	375.92	257.15
72	368.92	257.15
73	368.92	264.15
74	347.42	264.15
75	347.42	278.65
76	336.42	278.65
77	336.42	328.15
78	347.42	328.15
79	347.42	342.65
80	368.92	342.65
81	368.92	353.65
82	418.92	353.65
83	418.92	342.65
84	432.92	342.65
85	432.92	356.65
86	447.42	356.65
87	447.42	321.15
88	447.42	292.65
89	432.92	292.65
90	432.92	314.15
91	418.92	314.15
92	418.92	321.15
93	397.42	321.15
94	397.42	333.65
95	375.92	333.65
96	375.92	321.15
97	361.92	321.15
98	361.92	299.65
99	375.92	299.65
100	375.92	285.65
101	397.42	285.65
102	397.42	271.65
103	418.92	271.65
104	418.92	264.15
105	439.92	264.15
106	439.92	250.15
107	454.42	250.15
108	454.42	243.15
109	461.42	243.15
110	461.42	214.65
111	461.42	193.15
112	447.42	193.15
113	447.42	179.15
114	439.92	179.15
115	439.92	167.65
116	419.92	167.65
117	419.92	150.65
118	439.92	150.65
119	454.42	150.65
120	475.92	150.65
121	475.92	171.65
122	496.92	171.65
123	496.92	193.15
124	496.92	214.65
125	496.92	243.15
126	496.92	271.65
127	496.92	292.65
128	496.92	317.15
129	496.92	335.65
130	470.42	335.65
131	470.42	356.65
132	496.92	356.65
133	347.42	150.65
134	539.92	356.65
135	560.92	356.65
136	589.42	356.65
137	589.42	342.65
138	603.92	342.65
139	610.92	342.65
140	610.92	335.65
141	610.92	321.15
142	624.92	321.15
143	624.92	278.65
144	610.92	278.65
145	610.92	257.15
146	589.42	257.15
147	589.42	250.15
148	575.42	250.15
149	560.92	250.15
150	542.92	250.15
151	542.92	264.15
152	560.92	264.15
153	575.42	264.15
154	575.42	271.65
155	582.42	271.65
156	582.42	285.65
157	596.42	285.65
158	560.92	335.65
159	596.42	314.15
160	582.42	314.15
161	582.42	321.15
162	575.42	321.15
163	575.42	335.65
164	525.42	335.65
165	525.42	314.15
166	525.42	299.65
167	525.42	281.65
168	525.42	233.15
169	525.42	214.65
170	525.42	193.15
171	525.42	171.65
172	546.92	171.65
173	546.92	150.65
174	568.42	150.65
175	475.92	160.65
176	603.92	150.65
177	624.92	150.65
178	624.92	136.15
179	596.42	136.15
180	575.42	136.15
181	553.92	136.15
182	532.42	136.15
183	575.42	356.65
184	489.92	136.15
185	468.42	136.15
186	447.42	136.15
187	425.92	136.15
188	404.42	136.15
189	370.42	136.15
190	361.92	150.65
191	340.42	136.15
192	326.42	136.15
193	301.92	136.15
194	276.42	136.15
195	254.92	136.15
196	315.92	136.15
197	212.42	136.15
198	190.92	136.15
199	338.92	150.65
200	155.42	136.15
201	624.92	299.65
202	318.92	321.65
203	155.42	314.15
204	311.92	356.65
205	355.42	136.15
206	318.92	314.15
207	362.92	164.65
208	254.92	356.65
209	383.42	333.65
210	447.42	335.65
211	470.42	345.65
212	525.42	250.15
213	546.92	335.65
214	525.42	261.15
215	525.42	356.65
216	336.42	298.65
217	336.42	313.15
218	293.42	136.15
219	336.42	306.15
220	425.92	264.15
221	391.42	353.65
222	482.92	335.65
223	429.92	167.65
224	330.92	150.65
225	368.42	150.65
ITEMS SECTION	(INDEX, PROFIT, WEIGHT, ASSIGNED NODE NUMBER): 
1	1	1008	2
2	896	1006	3
3	367	1006	4
4	690	1001	5
5	613	1006	6
6	874	1001	7
7	122	1009	8
8	486	1004	9
9	823	1001	10
10	463	1003	11
11	589	1004	12
12	325	1009	13
13	1000	1006	14
14	776	1005	15
15	123	1000	16
16	356	1000	17
17	305	1007	18
18	47	1006	19
19	645	1008	20
20	139	1000	21
21	247	1009	22
22	211	1009	23
23	100	1007	24
24	627	1004	25
25	760	1002	26
26	776	1006	27
27	475	1006	28
28	937	1007	29
29	101	1008	30
30	281	1008	31
31	751	1008	32
32	530	1006	33
33	240	1004	34
34	248	1005	35
35	768	1000	36
36	31	1003	37
37	613	1007	38
38	881	1004	39
39	367	1007	40
40	712	1000	41
41	410	1007	42
42	157	1009	43
43	824	1000	44
44	242	1000	45
45	472	1005	46
46	722	1006	47
47	775	1001	48
48	371	1006	49
49	337	1003	50
50	885	1008	51
51	204	1008	52
52	594	1008	53
53	226	1006	54
54	226	1002	55
55	921	1000	56
56	537	1006	57
57	112	1001	58
58	959	1005	59
59	392	1001	60
60	709	1006	61
61	940	1002	62
62	943	1006	63
63	79	1001	64
64	922	1004	65
65	361	1000	66
66	947	1003	67
67	861	1009	68
68	937	1009	69
69	754	1005	70
70	872	1000	71
71	636	1001	72
72	459	1009	73
73	390	1001	74
74	141	1005	75
75	111	1009	76
76	588	1003	77
77	6	1001	78
78	155	1009	79
79	723	1008	80
80	723	1009	81
81	667	1004	82
82	829	1007	83
83	487	1004	84
84	590	1008	85
85	370	1006	86
86	823	1007	87
87	173	1002	88
88	56	1000	89
89	977	1005	90
90	681	1005	91
91	689	1007	92
92	933	1005	93
93	809	1002	94
94	587	1002	95
95	686	1003	96
96	466	1000	97
97	356	1004	98
98	784	1001	99
99	862	1009	100
100	223	1009	101
101	541	1006	102
102	61	1002	103
103	416	1001	104
104	62	1001	105
105	205	1002	106
106	152	1008	107
107	913	1009	108
108	267	1006	109
109	249	1003	110
110	187	1009	111
111	174	1003	112
112	939	1001	113
113	519	1004	114
114	56	1008	115
115	381	1008	116
116	551	1004	117
117	128	1006	118
118	812	1009	119
119	753	1008	120
120	544	1003	121
121	684	1005	122
122	830	1004	123
123	725	1009	124
124	330	1003	125
125	115	1000	126
126	38	1002	127
127	445	1005	128
128	619	1009	129
129	648	1000	130
130	896	1005	131
131	658	1006	132
132	306	1005	133
133	806	1008	134
134	800	1002	135
135	612	1002	136
136	354	1000	137
137	300	1008	138
138	174	1008	139
139	751	1002	140
140	126	1001	141
141	603	1001	142
142	665	1000	143
143	209	1006	144
144	308	1000	145
145	308	1009	146
146	677	1009	147
147	863	1005	148
148	292	1001	149
149	444	1007	150
150	295	1000	151
151	413	1000	152
152	72	1007	153
153	321	1003	154
154	981	1003	155
155	797	1004	156
156	507	1008	157
157	715	1001	158
158	512	1007	159
159	892	1004	160
160	76	1004	161
161	22	1008	162
162	643	1003	163
163	866	1004	164
164	74	1004	165
165	508	1005	166
166	243	1000	167
167	776	1006	168
168	326	1008	169
169	694	1005	170
170	662	1008	171
171	17	1008	172
172	654	1007	173
173	129	1006	174
174	662	1000	175
175	123	1007	176
176	182	1008	177
177	554	1002	178
178	421	1002	179
179	685	1009	180
180	470	1009	181
181	77	1006	182
182	264	1001	183
183	624	1006	184
184	961	1004	185
185	55	1001	186
186	254	1001	187
187	880	1009	188
188	921	1009	189
189	809	1009	190
190	680	1007	191
191	554	1008	192
192	62	1006	193
193	573	1001	194
194	568	1003	195
195	37	1004	196
196	910	1002	197
197	632	1007	198
198	211	1000	199
199	67	1005	200
200	763	1003	201
201	568	1007	202
202	681	1001	203
203	814	1007	204
204	514	1006	205
205	326	1001	206
206	41	1007	207
207	909	1001	208
208	192	1005	209
209	59	1001	210
210	352	1001	211
211	678	1006	212
212	885	1006	213
213	596	1007	214
214	400	1001	215
215	411	1003	216
216	746	1005	217
217	535	1006	218
218	82	1009	219
219	399	1008	220
220	412	1009	221
221	636	1002	222
222	983	1004	223
223	360	1000	224
224	120	1005	225
